(set-logic HORN)
(declare-fun X1 (Int Int) Bool)
(declare-fun X2 (Int) Bool)
(declare-fun X3 (Int Int) Bool)
(declare-fun X4 (Int) Bool)
(declare-fun X5 (Int Int) Bool)
(declare-fun X6 (Int) Bool)
(declare-fun X7 (Int Int) Bool)
(declare-fun X8 (Int) Bool)
(declare-fun X9 (Int Int) Bool)
(declare-fun X10 (Int) Bool)
(declare-fun X11 (Int Int) Bool)
(declare-fun X12 (Int) Bool)
(declare-fun X13 (Int Int) Bool)
(declare-fun X14 (Int) Bool)
(declare-fun X15 (Int Int) Bool)
(declare-fun X57 () Bool)
(declare-fun X69 (Int Int) Bool)
(declare-fun X81 (Int Int) Bool)
(declare-fun X93 (Int Int) Bool)
(declare-fun X115 (Int Int) Bool)
(declare-fun X127 (Int Int) Bool)
(declare-fun X139 (Int Int) Bool)
(declare-fun X161 (Int Int) Bool)
(declare-fun X173 (Int Int) Bool)
(declare-fun X185 (Int Int) Bool)
(declare-fun X207 (Int Int) Bool)
(declare-fun X219 (Int Int) Bool)
(declare-fun X231 (Int Int) Bool)
(declare-fun X253 (Int Int) Bool)
(declare-fun X265 (Int Int) Bool)
(declare-fun X277 (Int Int) Bool)
(declare-fun X296 (Int) Bool)
(declare-fun X297 (Int Int) Bool)
(declare-fun X298 (Int) Bool)
(declare-fun X299 (Int Int) Bool)
(declare-fun X300 (Int) Bool)
(declare-fun X301 (Int Int) Bool)
(declare-fun X302 (Int) Bool)
(declare-fun X303 (Int Int) Bool)
(declare-fun X304 (Int) Bool)
(declare-fun X305 (Int Int) Bool)
(declare-fun X306 (Int) Bool)
(declare-fun X307 (Int Int) Bool)
(declare-fun X308 () Bool)
(declare-fun X309 (Int) Bool)
(declare-fun X310 (Int Int) Bool)
(declare-fun X311 (Int) Bool)
(declare-fun X312 (Int Int) Bool)
(declare-fun X313 (Int) Bool)
(declare-fun X314 (Int Int) Bool)
(declare-fun X315 (Int) Bool)
(declare-fun X316 (Int Int) Bool)
(declare-fun X317 (Int) Bool)
(declare-fun X318 (Int Int) Bool)
(declare-fun X319 (Int) Bool)
(declare-fun X320 (Int Int) Bool)
(declare-fun X321 () Bool)
(declare-fun X322 (Int) Bool)
(declare-fun X323 (Int Int) Bool)
(declare-fun X324 (Int) Bool)
(declare-fun X325 (Int Int) Bool)
(declare-fun X326 (Int) Bool)
(declare-fun X327 (Int Int) Bool)
(declare-fun X328 (Int) Bool)
(declare-fun X329 (Int Int) Bool)
(declare-fun X330 (Int) Bool)
(declare-fun X331 (Int Int) Bool)
(declare-fun X332 (Int) Bool)
(declare-fun X333 (Int Int) Bool)
(declare-fun X334 () Bool)
(declare-fun X335 (Int) Bool)
(declare-fun X336 (Int Int) Bool)
(declare-fun X337 (Int) Bool)
(declare-fun X338 (Int Int) Bool)
(declare-fun X339 (Int) Bool)
(declare-fun X340 (Int Int) Bool)
(declare-fun X341 (Int) Bool)
(declare-fun X342 (Int Int) Bool)
(declare-fun X343 (Int) Bool)
(declare-fun X344 (Int Int) Bool)
(declare-fun X345 (Int) Bool)
(declare-fun X346 (Int Int) Bool)
(declare-fun X347 () Bool)
(declare-fun X348 (Int) Bool)
(declare-fun X349 (Int Int) Bool)
(declare-fun X350 (Int) Bool)
(declare-fun X351 (Int Int) Bool)
(declare-fun X352 (Int) Bool)
(declare-fun X353 (Int Int) Bool)
(declare-fun X354 (Int) Bool)
(declare-fun X355 (Int Int) Bool)
(declare-fun X356 (Int) Bool)
(declare-fun X357 (Int Int) Bool)
(declare-fun X358 (Int) Bool)
(declare-fun X359 (Int Int) Bool)
(declare-fun X360 () Bool)
(declare-fun X361 (Int Int Int Int Int) Bool)
(declare-fun X362 (Int Int Int Int Int Int) Bool)
(declare-fun X363 (Int Int Int Int Int) Bool)
(declare-fun X364 (Int Int Int Int Int Int) Bool)
(declare-fun X365 (Int Int Int Int Int) Bool)
(declare-fun X366 (Int Int Int Int Int Int) Bool)
(declare-fun X367 (Int Int Int Int Int) Bool)
(declare-fun X368 (Int Int Int Int Int Int) Bool)
(declare-fun X369 (Int Int Int Int Int) Bool)
(declare-fun X370 (Int Int Int Int Int Int) Bool)
(declare-fun X371 (Int Int Int Int Int) Bool)
(declare-fun X372 (Int Int Int Int Int Int) Bool)
(declare-fun X373 (Int Int Int Int) Bool)
(declare-fun X374 (Int Int Int) Bool)
(declare-fun X375 (Int Int) Bool)
(declare-fun X376 (Int) Bool)
(assert (forall ((x259 Int)) (=> (X376  x259) (X8  x259))))
(assert (forall ((x259 Int)(x260 Int)) (=> (X7  x260 x259) (or (X15  x260 x259) (X8  x259)))))
(assert (forall ((seed70 Int)(x257 Int)) (=> (X6  x257) (or (X14  x257) (X8  seed70)))))
(assert (forall ((seed70 Int)(x257 Int)(x258 Int)) (=> (X13  x258 x257) (or (or (X5  x258 x257) (X14  x257)) (X8  seed70)))))
(assert (forall ((seed70 Int)(x255 Int)) (=> (X4  x255) (or (X12  x255) (X8  seed70)))))
(assert (forall ((seed70 Int)(x255 Int)(x256 Int)) (=> (X11  x256 x255) (or (or (X3  x256 x255) (X12  x255)) (X8  seed70)))))
(assert (forall ((seed70 Int)(x253 Int)) (=> (X2  x253) (or (X10  x253) (X8  seed70)))))
(assert (forall ((seed70 Int)(x253 Int)(x254 Int)) (=> (X9  x254 x253) (or (or (X1  x254 x253) (X10  x253)) (X8  seed70)))))
(assert (forall ((seed12 Int)) (=> (X10  seed12) (X376  seed12))))
(assert (forall ((seed12 Int)(x252 Int)) (=> (X375  x252 seed12) (or (X9  x252 seed12) (X376  seed12)))))
(assert (forall ((isEnd14 Int)(seed12 Int)) (=> (X12  seed12) (X375  isEnd14 seed12))))
(assert (forall ((isEnd14 Int)(seed12 Int)(x251 Int)) (=> (X374  x251 isEnd14 seed12) (or (X11  x251 seed12) (X375  isEnd14 seed12)))))
(assert (forall ((elem15 Int)(isEnd14 Int)(seed12 Int)) (=> (X14  seed12) (X374  elem15 isEnd14 seed12))))
(assert (forall ((elem15 Int)(isEnd14 Int)(seed12 Int)(x250 Int)) (=> (and (=  isEnd14 0) (X15  0 seed12)) (or (X13  x250 seed12) (X374  elem15 isEnd14 seed12)))))
(assert (forall ((elem15 Int)(isEnd14 Int)(seed12 Int)(x250 Int)) (=> (and (not (=  isEnd14 0)) (X373  x250 elem15 isEnd14 seed12)) (or (X13  x250 seed12) (X374  elem15 isEnd14 seed12)))))
(assert (forall ((elem15 Int)(isEnd14 Int)(next_seed16 Int)(seed12 Int)) (=> (X371  next_seed16 next_seed16 elem15 isEnd14 seed12) (X373  next_seed16 elem15 isEnd14 seed12))))
(assert (forall ((elem15 Int)(isEnd14 Int)(next_seed16 Int)(seed12 Int)(tmp299 Int)(x249 Int)) (=> (and (=  tmp299 next_seed16) (X15  (+  elem15 x249) seed12)) (or (X372  x249 next_seed16 tmp299 elem15 isEnd14 seed12) (X373  next_seed16 elem15 isEnd14 seed12)))))
(assert (forall ((elem15 Int)(isEnd14 Int)(next_seed16 Int)(seed12 Int)(x247 Int)) (=> (X367  x247 next_seed16 elem15 isEnd14 seed12) (X371  x247 next_seed16 elem15 isEnd14 seed12))))
(assert (forall ((elem15 Int)(isEnd14 Int)(next_seed16 Int)(seed12 Int)(x247 Int)(x248 Int)) (=> (X372  x248 x247 next_seed16 elem15 isEnd14 seed12) (or (X368  x248 x247 next_seed16 elem15 isEnd14 seed12) (X371  x247 next_seed16 elem15 isEnd14 seed12)))))
(assert (forall ((elem15 Int)(isEnd14 Int)(next_seed16 Int)(seed12 Int)(seed70 Int)(x245 Int)) (=> (X14  x245) (or (X369  x245 next_seed16 elem15 isEnd14 seed12) (X371  seed70 next_seed16 elem15 isEnd14 seed12)))))
(assert (forall ((elem15 Int)(isEnd14 Int)(next_seed16 Int)(seed12 Int)(seed70 Int)(x245 Int)(x246 Int)) (=> (X370  x246 x245 next_seed16 elem15 isEnd14 seed12) (or (or (X13  x246 x245) (X369  x245 next_seed16 elem15 isEnd14 seed12)) (X371  seed70 next_seed16 elem15 isEnd14 seed12)))))
(assert (forall ((elem15 Int)(isEnd14 Int)(next_seed16 Int)(seed12 Int)(x243 Int)) (=> (X361  x243 next_seed16 elem15 isEnd14 seed12) (X367  x243 next_seed16 elem15 isEnd14 seed12))))
(assert (forall ((elem15 Int)(isEnd14 Int)(next_seed16 Int)(seed12 Int)(x243 Int)(x244 Int)) (=> (X368  x244 x243 next_seed16 elem15 isEnd14 seed12) (or (X362  x244 x243 next_seed16 elem15 isEnd14 seed12) (X367  x243 next_seed16 elem15 isEnd14 seed12)))))
(assert (forall ((elem15 Int)(isEnd14 Int)(next_seed16 Int)(seed12 Int)(seed70 Int)(x241 Int)) (=> (X369  x241 next_seed16 elem15 isEnd14 seed12) (or (X363  x241 next_seed16 elem15 isEnd14 seed12) (X367  seed70 next_seed16 elem15 isEnd14 seed12)))))
(assert (forall ((elem15 Int)(isEnd14 Int)(next_seed16 Int)(seed12 Int)(seed70 Int)(x241 Int)(x242 Int)) (=> (X364  x242 x241 next_seed16 elem15 isEnd14 seed12) (or (or (X370  x242 x241 next_seed16 elem15 isEnd14 seed12) (X363  x241 next_seed16 elem15 isEnd14 seed12)) (X367  seed70 next_seed16 elem15 isEnd14 seed12)))))
(assert (forall ((elem15 Int)(isEnd14 Int)(next_seed16 Int)(seed12 Int)(seed70 Int)(x239 Int)) (=> (X12  x239) (or (X365  x239 next_seed16 elem15 isEnd14 seed12) (X367  seed70 next_seed16 elem15 isEnd14 seed12)))))
(assert (forall ((elem15 Int)(isEnd14 Int)(next_seed16 Int)(seed12 Int)(seed70 Int)(x239 Int)(x240 Int)) (=> (X366  x240 x239 next_seed16 elem15 isEnd14 seed12) (or (or (X11  x240 x239) (X365  x239 next_seed16 elem15 isEnd14 seed12)) (X367  seed70 next_seed16 elem15 isEnd14 seed12)))))
(assert (forall ((elem15 Int)(isEnd14 Int)(next_seed16 Int)(seed12 Int)(x237 Int)) (=> (X8  x237) (X361  x237 next_seed16 elem15 isEnd14 seed12))))
(assert (forall ((elem15 Int)(isEnd14 Int)(next_seed16 Int)(seed12 Int)(x237 Int)(x238 Int)) (=> (X362  x238 x237 next_seed16 elem15 isEnd14 seed12) (or (X7  x238 x237) (X361  x237 next_seed16 elem15 isEnd14 seed12)))))
(assert (forall ((elem15 Int)(isEnd14 Int)(next_seed16 Int)(seed12 Int)(seed70 Int)(x235 Int)) (=> (X363  x235 next_seed16 elem15 isEnd14 seed12) (or (X6  x235) (X361  seed70 next_seed16 elem15 isEnd14 seed12)))))
(assert (forall ((elem15 Int)(isEnd14 Int)(next_seed16 Int)(seed12 Int)(seed70 Int)(x235 Int)(x236 Int)) (=> (X5  x236 x235) (or (or (X364  x236 x235 next_seed16 elem15 isEnd14 seed12) (X6  x235)) (X361  seed70 next_seed16 elem15 isEnd14 seed12)))))
(assert (forall ((elem15 Int)(isEnd14 Int)(next_seed16 Int)(seed12 Int)(seed70 Int)(x233 Int)) (=> (X365  x233 next_seed16 elem15 isEnd14 seed12) (or (X4  x233) (X361  seed70 next_seed16 elem15 isEnd14 seed12)))))
(assert (forall ((elem15 Int)(isEnd14 Int)(next_seed16 Int)(seed12 Int)(seed70 Int)(x233 Int)(x234 Int)) (=> (X3  x234 x233) (or (or (X366  x234 x233 next_seed16 elem15 isEnd14 seed12) (X4  x233)) (X361  seed70 next_seed16 elem15 isEnd14 seed12)))))
(assert (forall ((elem15 Int)(isEnd14 Int)(next_seed16 Int)(seed12 Int)(seed70 Int)(x231 Int)) (=> (X10  x231) (or (X2  x231) (X361  seed70 next_seed16 elem15 isEnd14 seed12)))))
(assert (forall ((elem15 Int)(isEnd14 Int)(next_seed16 Int)(seed12 Int)(seed70 Int)(x231 Int)(x232 Int)) (=> (X1  x232 x231) (or (or (X9  x232 x231) (X2  x231)) (X361  seed70 next_seed16 elem15 isEnd14 seed12)))))
(assert (=> (and X308 (and X321 (and X334 (and X347 X360)))) X57))
(assert (=> (X358  10) X360))
(assert (forall ((tmp300 Int)(x230 Int)) (=> (=  tmp300 10) (or (X359  x230 tmp300) X360))))
(assert (forall ((x228 Int)) (=> (X354  x228) (X358  x228))))
(assert (forall ((x228 Int)(x229 Int)) (=> (X359  x229 x228) (or (X355  x229 x228) (X358  x228)))))
(assert (forall ((seed70 Int)(x226 Int)) (=> (and (=  x226 0) (X69  0 x226)) (or (X356  x226) (X358  seed70)))))
(assert (forall ((seed70 Int)(x226 Int)) (=> (and (not (=  x226 0)) (X69  (-  x226 1) x226)) (or (X356  x226) (X358  seed70)))))
(assert (forall ((seed70 Int)(x226 Int)(x227 Int)) (=> (X357  x227 x226) (or (or (X69  x227 x226) (X356  x226)) (X358  seed70)))))
(assert (forall ((x224 Int)) (=> (X348  x224) (X354  x224))))
(assert (forall ((x224 Int)(x225 Int)) (=> (X355  x225 x224) (or (X349  x225 x224) (X354  x224)))))
(assert (forall ((seed70 Int)(x222 Int)) (=> (X356  x222) (or (X350  x222) (X354  seed70)))))
(assert (forall ((seed70 Int)(x222 Int)(x223 Int)) (=> (X351  x223 x222) (or (or (X357  x223 x222) (X350  x222)) (X354  seed70)))))
(assert (forall ((seed70 Int)(x220 Int)) (=> (and (=  x220 0) (X81  0 x220)) (or (X352  x220) (X354  seed70)))))
(assert (forall ((seed70 Int)(x220 Int)) (=> (and (not (=  x220 0)) (X81  1 x220)) (or (X352  x220) (X354  seed70)))))
(assert (forall ((seed70 Int)(x220 Int)(x221 Int)) (=> (X353  x221 x220) (or (or (X81  x221 x220) (X352  x220)) (X354  seed70)))))
(assert (forall ((x218 Int)) (=> (X8  x218) (X348  x218))))
(assert (forall ((x218 Int)(x219 Int)) (=> (X349  x219 x218) (or (X7  x219 x218) (X348  x218)))))
(assert (forall ((seed70 Int)(x216 Int)) (=> (X350  x216) (or (X6  x216) (X348  seed70)))))
(assert (forall ((seed70 Int)(x216 Int)(x217 Int)) (=> (X5  x217 x216) (or (or (X351  x217 x216) (X6  x216)) (X348  seed70)))))
(assert (forall ((seed70 Int)(x214 Int)) (=> (X352  x214) (or (X4  x214) (X348  seed70)))))
(assert (forall ((seed70 Int)(x214 Int)(x215 Int)) (=> (X3  x215 x214) (or (or (X353  x215 x214) (X4  x214)) (X348  seed70)))))
(assert (forall ((seed70 Int)(x212 Int)) (=> (and (=  x212 0) (X93  0 x212)) (or (X2  x212) (X348  seed70)))))
(assert (forall ((seed70 Int)(x212 Int)) (=> (and (not (=  x212 0)) (X93  1 x212)) (or (X2  x212) (X348  seed70)))))
(assert (forall ((seed70 Int)(x212 Int)(x213 Int)) (=> (X1  x213 x212) (or (or (X93  x213 x212) (X2  x212)) (X348  seed70)))))
(assert (=> (X345  3) X347))
(assert (forall ((tmp301 Int)(x211 Int)) (=> (=  tmp301 3) (or (X346  x211 tmp301) X347))))
(assert (forall ((x209 Int)) (=> (X341  x209) (X345  x209))))
(assert (forall ((x209 Int)(x210 Int)) (=> (X346  x210 x209) (or (X342  x210 x209) (X345  x209)))))
(assert (forall ((seed70 Int)(x207 Int)) (=> (and (=  x207 0) (X115  0 x207)) (or (X343  x207) (X345  seed70)))))
(assert (forall ((seed70 Int)(x207 Int)) (=> (and (not (=  x207 0)) (X115  (-  x207 1) x207)) (or (X343  x207) (X345  seed70)))))
(assert (forall ((seed70 Int)(x207 Int)(x208 Int)) (=> (X344  x208 x207) (or (or (X115  x208 x207) (X343  x207)) (X345  seed70)))))
(assert (forall ((x205 Int)) (=> (X335  x205) (X341  x205))))
(assert (forall ((x205 Int)(x206 Int)) (=> (X342  x206 x205) (or (X336  x206 x205) (X341  x205)))))
(assert (forall ((seed70 Int)(x203 Int)) (=> (X343  x203) (or (X337  x203) (X341  seed70)))))
(assert (forall ((seed70 Int)(x203 Int)(x204 Int)) (=> (X338  x204 x203) (or (or (X344  x204 x203) (X337  x203)) (X341  seed70)))))
(assert (forall ((seed70 Int)(x201 Int)) (=> (and (=  x201 0) (X127  0 x201)) (or (X339  x201) (X341  seed70)))))
(assert (forall ((seed70 Int)(x201 Int)) (=> (and (not (=  x201 0)) (X127  1 x201)) (or (X339  x201) (X341  seed70)))))
(assert (forall ((seed70 Int)(x201 Int)(x202 Int)) (=> (X340  x202 x201) (or (or (X127  x202 x201) (X339  x201)) (X341  seed70)))))
(assert (forall ((x199 Int)) (=> (X8  x199) (X335  x199))))
(assert (forall ((x199 Int)(x200 Int)) (=> (X336  x200 x199) (or (X7  x200 x199) (X335  x199)))))
(assert (forall ((seed70 Int)(x197 Int)) (=> (X337  x197) (or (X6  x197) (X335  seed70)))))
(assert (forall ((seed70 Int)(x197 Int)(x198 Int)) (=> (X5  x198 x197) (or (or (X338  x198 x197) (X6  x197)) (X335  seed70)))))
(assert (forall ((seed70 Int)(x195 Int)) (=> (X339  x195) (or (X4  x195) (X335  seed70)))))
(assert (forall ((seed70 Int)(x195 Int)(x196 Int)) (=> (X3  x196 x195) (or (or (X340  x196 x195) (X4  x195)) (X335  seed70)))))
(assert (forall ((seed70 Int)(x193 Int)) (=> (and (=  x193 0) (X139  0 x193)) (or (X2  x193) (X335  seed70)))))
(assert (forall ((seed70 Int)(x193 Int)) (=> (and (not (=  x193 0)) (X139  1 x193)) (or (X2  x193) (X335  seed70)))))
(assert (forall ((seed70 Int)(x193 Int)(x194 Int)) (=> (X1  x194 x193) (or (or (X139  x194 x193) (X2  x193)) (X335  seed70)))))
(assert (=> (X332  1) X334))
(assert (forall ((tmp302 Int)(x192 Int)) (=> (=  tmp302 1) (or (X333  x192 tmp302) X334))))
(assert (forall ((x190 Int)) (=> (X328  x190) (X332  x190))))
(assert (forall ((x190 Int)(x191 Int)) (=> (X333  x191 x190) (or (X329  x191 x190) (X332  x190)))))
(assert (forall ((seed70 Int)(x188 Int)) (=> (and (=  x188 0) (X161  0 x188)) (or (X330  x188) (X332  seed70)))))
(assert (forall ((seed70 Int)(x188 Int)) (=> (and (not (=  x188 0)) (X161  (-  x188 1) x188)) (or (X330  x188) (X332  seed70)))))
(assert (forall ((seed70 Int)(x188 Int)(x189 Int)) (=> (X331  x189 x188) (or (or (X161  x189 x188) (X330  x188)) (X332  seed70)))))
(assert (forall ((x186 Int)) (=> (X322  x186) (X328  x186))))
(assert (forall ((x186 Int)(x187 Int)) (=> (X329  x187 x186) (or (X323  x187 x186) (X328  x186)))))
(assert (forall ((seed70 Int)(x184 Int)) (=> (X330  x184) (or (X324  x184) (X328  seed70)))))
(assert (forall ((seed70 Int)(x184 Int)(x185 Int)) (=> (X325  x185 x184) (or (or (X331  x185 x184) (X324  x184)) (X328  seed70)))))
(assert (forall ((seed70 Int)(x182 Int)) (=> (and (=  x182 0) (X173  0 x182)) (or (X326  x182) (X328  seed70)))))
(assert (forall ((seed70 Int)(x182 Int)) (=> (and (not (=  x182 0)) (X173  1 x182)) (or (X326  x182) (X328  seed70)))))
(assert (forall ((seed70 Int)(x182 Int)(x183 Int)) (=> (X327  x183 x182) (or (or (X173  x183 x182) (X326  x182)) (X328  seed70)))))
(assert (forall ((x180 Int)) (=> (X8  x180) (X322  x180))))
(assert (forall ((x180 Int)(x181 Int)) (=> (X323  x181 x180) (or (X7  x181 x180) (X322  x180)))))
(assert (forall ((seed70 Int)(x178 Int)) (=> (X324  x178) (or (X6  x178) (X322  seed70)))))
(assert (forall ((seed70 Int)(x178 Int)(x179 Int)) (=> (X5  x179 x178) (or (or (X325  x179 x178) (X6  x178)) (X322  seed70)))))
(assert (forall ((seed70 Int)(x176 Int)) (=> (X326  x176) (or (X4  x176) (X322  seed70)))))
(assert (forall ((seed70 Int)(x176 Int)(x177 Int)) (=> (X3  x177 x176) (or (or (X327  x177 x176) (X4  x176)) (X322  seed70)))))
(assert (forall ((seed70 Int)(x174 Int)) (=> (and (=  x174 0) (X185  0 x174)) (or (X2  x174) (X322  seed70)))))
(assert (forall ((seed70 Int)(x174 Int)) (=> (and (not (=  x174 0)) (X185  1 x174)) (or (X2  x174) (X322  seed70)))))
(assert (forall ((seed70 Int)(x174 Int)(x175 Int)) (=> (X1  x175 x174) (or (or (X185  x175 x174) (X2  x174)) (X322  seed70)))))
(assert (=> (X319  0) X321))
(assert (forall ((tmp303 Int)(x173 Int)) (=> (=  tmp303 0) (or (X320  x173 tmp303) X321))))
(assert (forall ((x171 Int)) (=> (X315  x171) (X319  x171))))
(assert (forall ((x171 Int)(x172 Int)) (=> (X320  x172 x171) (or (X316  x172 x171) (X319  x171)))))
(assert (forall ((seed70 Int)(x169 Int)) (=> (and (=  x169 0) (X207  0 x169)) (or (X317  x169) (X319  seed70)))))
(assert (forall ((seed70 Int)(x169 Int)) (=> (and (not (=  x169 0)) (X207  (-  x169 1) x169)) (or (X317  x169) (X319  seed70)))))
(assert (forall ((seed70 Int)(x169 Int)(x170 Int)) (=> (X318  x170 x169) (or (or (X207  x170 x169) (X317  x169)) (X319  seed70)))))
(assert (forall ((x167 Int)) (=> (X309  x167) (X315  x167))))
(assert (forall ((x167 Int)(x168 Int)) (=> (X316  x168 x167) (or (X310  x168 x167) (X315  x167)))))
(assert (forall ((seed70 Int)(x165 Int)) (=> (X317  x165) (or (X311  x165) (X315  seed70)))))
(assert (forall ((seed70 Int)(x165 Int)(x166 Int)) (=> (X312  x166 x165) (or (or (X318  x166 x165) (X311  x165)) (X315  seed70)))))
(assert (forall ((seed70 Int)(x163 Int)) (=> (and (=  x163 0) (X219  0 x163)) (or (X313  x163) (X315  seed70)))))
(assert (forall ((seed70 Int)(x163 Int)) (=> (and (not (=  x163 0)) (X219  1 x163)) (or (X313  x163) (X315  seed70)))))
(assert (forall ((seed70 Int)(x163 Int)(x164 Int)) (=> (X314  x164 x163) (or (or (X219  x164 x163) (X313  x163)) (X315  seed70)))))
(assert (forall ((x161 Int)) (=> (X8  x161) (X309  x161))))
(assert (forall ((x161 Int)(x162 Int)) (=> (X310  x162 x161) (or (X7  x162 x161) (X309  x161)))))
(assert (forall ((seed70 Int)(x159 Int)) (=> (X311  x159) (or (X6  x159) (X309  seed70)))))
(assert (forall ((seed70 Int)(x159 Int)(x160 Int)) (=> (X5  x160 x159) (or (or (X312  x160 x159) (X6  x159)) (X309  seed70)))))
(assert (forall ((seed70 Int)(x157 Int)) (=> (X313  x157) (or (X4  x157) (X309  seed70)))))
(assert (forall ((seed70 Int)(x157 Int)(x158 Int)) (=> (X3  x158 x157) (or (or (X314  x158 x157) (X4  x157)) (X309  seed70)))))
(assert (forall ((seed70 Int)(x155 Int)) (=> (and (=  x155 0) (X231  0 x155)) (or (X2  x155) (X309  seed70)))))
(assert (forall ((seed70 Int)(x155 Int)) (=> (and (not (=  x155 0)) (X231  1 x155)) (or (X2  x155) (X309  seed70)))))
(assert (forall ((seed70 Int)(x155 Int)(x156 Int)) (=> (X1  x156 x155) (or (or (X231  x156 x155) (X2  x155)) (X309  seed70)))))
(assert (=> (X306  (-  0 3)) X308))
(assert (forall ((tmp304 Int)(x154 Int)) (=> (=  tmp304 (-  0 3)) (or (X307  x154 tmp304) X308))))
(assert (forall ((x152 Int)) (=> (X302  x152) (X306  x152))))
(assert (forall ((x152 Int)(x153 Int)) (=> (X307  x153 x152) (or (X303  x153 x152) (X306  x152)))))
(assert (forall ((seed70 Int)(x150 Int)) (=> (and (=  x150 0) (X253  0 x150)) (or (X304  x150) (X306  seed70)))))
(assert (forall ((seed70 Int)(x150 Int)) (=> (and (not (=  x150 0)) (X253  (-  x150 1) x150)) (or (X304  x150) (X306  seed70)))))
(assert (forall ((seed70 Int)(x150 Int)(x151 Int)) (=> (X305  x151 x150) (or (or (X253  x151 x150) (X304  x150)) (X306  seed70)))))
(assert (forall ((x148 Int)) (=> (X296  x148) (X302  x148))))
(assert (forall ((x148 Int)(x149 Int)) (=> (X303  x149 x148) (or (X297  x149 x148) (X302  x148)))))
(assert (forall ((seed70 Int)(x146 Int)) (=> (X304  x146) (or (X298  x146) (X302  seed70)))))
(assert (forall ((seed70 Int)(x146 Int)(x147 Int)) (=> (X299  x147 x146) (or (or (X305  x147 x146) (X298  x146)) (X302  seed70)))))
(assert (forall ((seed70 Int)(x144 Int)) (=> (and (=  x144 0) (X265  0 x144)) (or (X300  x144) (X302  seed70)))))
(assert (forall ((seed70 Int)(x144 Int)) (=> (and (not (=  x144 0)) (X265  1 x144)) (or (X300  x144) (X302  seed70)))))
(assert (forall ((seed70 Int)(x144 Int)(x145 Int)) (=> (X301  x145 x144) (or (or (X265  x145 x144) (X300  x144)) (X302  seed70)))))
(assert (forall ((x142 Int)) (=> (X8  x142) (X296  x142))))
(assert (forall ((x142 Int)(x143 Int)) (=> (X297  x143 x142) (or (X7  x143 x142) (X296  x142)))))
(assert (forall ((seed70 Int)(x140 Int)) (=> (X298  x140) (or (X6  x140) (X296  seed70)))))
(assert (forall ((seed70 Int)(x140 Int)(x141 Int)) (=> (X5  x141 x140) (or (or (X299  x141 x140) (X6  x140)) (X296  seed70)))))
(assert (forall ((seed70 Int)(x138 Int)) (=> (X300  x138) (or (X4  x138) (X296  seed70)))))
(assert (forall ((seed70 Int)(x138 Int)(x139 Int)) (=> (X3  x139 x138) (or (or (X301  x139 x138) (X4  x138)) (X296  seed70)))))
(assert (forall ((seed70 Int)(x136 Int)) (=> (and (=  x136 0) (X277  0 x136)) (or (X2  x136) (X296  seed70)))))
(assert (forall ((seed70 Int)(x136 Int)) (=> (and (not (=  x136 0)) (X277  1 x136)) (or (X2  x136) (X296  seed70)))))
(assert (forall ((seed70 Int)(x136 Int)(x137 Int)) (=> (X1  x137 x136) (or (or (X277  x137 x136) (X2  x136)) (X296  seed70)))))
(assert (=> X57 false))
(check-sat)
    